20	38
0	1	85
0	12	89
0	13	41
0	14	96
0	15	88
0	18	65
1	6	81
1	12	62
1	16	29
2	6	89
3	5	47
3	8	95
3	13	65
3	19	68
4	17	1
4	18	71
5	10	68
5	14	81
7	8	36
7	10	57
7	12	53
7	17	41
8	16	99
8	17	58
8	18	47
9	10	26
9	13	56
9	19	39
10	12	73
11	14	33
12	14	85
12	17	14
12	18	48
13	15	44
13	17	83
14	16	34
15	16	10
17	18	24
